
Gurobi 11.0.2 (win64) logging started Sat Nov  2 03:00:46 2024

Set parameter LogFile to value ".\Experiments\Verification_16\Logs\vit_6_4_6_12_i4_r2_c3.log"
Set parameter TimeLimit to value 43200
Gurobi Optimizer version 11.0.2 build v11.0.2rc0 (win64 - Windows 10.0 (19045.2))

CPU model: Intel(R) Core(TM) i7-10750H CPU @ 2.60GHz, instruction set [SSE2|AVX|AVX2]
Thread count: 6 physical cores, 12 logical processors, using up to 12 threads

Optimize a model with 5565 rows, 8541 columns and 20276 nonzeros
Model fingerprint: 0x10ac311b
Model has 2398 quadratic constraints
Model has 840 general constraints
Variable types: 7941 continuous, 600 integer (600 binary)
Coefficient statistics:
  Matrix range     [6e-05, 1e+02]
  QMatrix range    [1e+00, 1e+00]
  QLMatrix range   [1e+00, 1e+00]
  Objective range  [1e+00, 1e+00]
  Bounds range     [2e-121, 3e+02]
  RHS range        [3e-04, 1e+02]
  QRHS range       [1e-06, 1e-06]
Presolve removed 2848 rows and 2959 columns
Presolve time: 0.05s
Presolved: 14474 rows, 5583 columns, 40038 nonzeros
Presolved model has 2269 bilinear constraint(s)
Presolved model has 593 nonlinear constraint(s)
Warning: Model contains variables with very large bounds participating
         in nonlinear terms.
         Presolve was not able to compute smaller bounds for these variables.
         Consider bounding these variables or reformulating the model.


Solving non-convex MINLP

Variable types: 4881 continuous, 702 integer (702 binary)

Root relaxation: objective -5.461570e+01, 4945 iterations, 0.23 seconds (0.28 work units)

    Nodes    |    Current Node    |     Objective Bounds      |     Work
 Expl Unexpl |  Obj  Depth IntInf | Incumbent    BestBd   Gap | It/Node Time

     0     0  -54.61570    0 2494          -  -54.61570      -     -    0s
     0     0  -54.61570    0 2507          -  -54.61570      -     -    1s
     0     0  -54.61570    0 2500          -  -54.61570      -     -    1s
     0     0  -54.61570    0 2500          -  -54.61570      -     -    1s
     0     0  -54.61570    0 2470          -  -54.61570      -     -    1s
     0     0  -54.61570    0 2470          -  -54.61570      -     -    1s
     0     0  -54.61570    0 2467          -  -54.61570      -     -    1s
     0     0  -54.61570    0 2479          -  -54.61570      -     -    1s
     0     0  -54.61570    0 2458          -  -54.61570      -     -    2s
     0     0          -    0               -  -54.61570      -     -    5s

Cutting planes:
  MIR: 3
  Flow cover: 2
  RLT: 254
  BQP: 6

Explored 1 nodes (15705 simplex iterations) in 5.07 seconds (3.28 work units)
Thread count was 12 (of 12 available processors)

Solution count 0

Solve interrupted
Best objective -, best bound -5.461570281092e+01, gap -
